p cnf 261 591
e 1 2 3 4 5 6 7 8 9 10 11 12 13 14 15 16 17 18 19 20 21 22 23 24 25 26 27 28 29 30 31 32 33 34 35 36 37 38 39 40 41 42 43 44 45 46 47 48 49 50 51 52 53 54 55 56 57 58 59 60 61 62 63 64 65 66 0
a 67 68 69 0
e 70 71 72 73 74 75 76 77 78 79 80 81 82 83 84 85 86 87 88 89 90 91 92 93 94 95 96 97 98 99 100 101 102 103 104 105 106 107 108 109 110 111 112 113 114 115 116 117 118 119 120 121 122 123 124 125 126 127 128 129 130 131 132 133 134 135 136 137 138 139 140 141 142 143 144 145 146 147 148 149 150 151 152 153 154 155 156 157 158 159 160 161 0
a 162 163 164 0
e 165 166 167 168 169 170 171 172 173 174 175 176 177 178 179 180 181 182 183 184 185 186 187 188 189 190 191 192 193 194 195 196 197 198 199 200 201 202 203 204 205 206 207 208 209 210 211 212 213 214 215 216 217 218 219 220 221 222 223 224 225 226 227 228 229 230 231 232 233 234 235 236 237 238 239 240 241 242 243 244 245 246 247 248 249 250 251 252 253 254 255 256 257 258 259 260 261 0
-255 0
-14 0
-44 0
237 0
-204 0
-65 0
235 0
-9 0
-18 0
50 0
-155 0
-208 0
-207 0
-157 0
-114 0
-19 0
145 0
-29 0
-32 0
-159 0
100 0
192 0
-63 0
1 0
-52 0
-147 0
94 0
-2 0
-17 0
141 0
236 0
-113 0
-5 0
51 0
240 0
97 0
193 0
-112 0
-251 0
-7 0
-12 0
49 0
238 0
239 0
98 0
190 0
-196 0
-11 0
-4 0
-41 0
-64 0
143 0
-109 0
-108 0
-209 0
-35 0
-154 0
-160 0
-8 0
-13 0
-16 0
47 0
-254 0
-110 0
-6 0
241 0
-101 0
-250 0
99 0
-203 0
-253 0
-252 0
256 0
-59 0
95 0
96 0
-61 0
-156 0
-205 0
-261 0
140 0
189 0
-3 0
-60 0
-158 0
-111 0
45 0
-242 0
-15 0
46 0
142 0
146 0
195 0
-62 0
-206 0
-10 0
-38 0
48 0
144 0
-249 0
191 0
194 0
-66 20 0
-115 66 0
-161 115 0
-210 161 0
-28 77 0
-31 80 0
-34 83 0
-37 86 0
-40 89 0
-43 92 0
-77 123 0
-80 126 0
-83 129 0
-86 132 0
-89 135 0
-92 138 0
-123 172 0
-126 175 0
-129 178 0
-132 181 0
-135 184 0
-138 187 0
-172 218 0
-175 221 0
-178 224 0
-181 227 0
-184 230 0
-187 233 0
-78 124 0
-81 127 0
-84 130 0
-87 133 0
-90 136 0
-93 139 0
-124 173 0
-127 176 0
-130 179 0
-133 182 0
-136 185 0
-139 188 0
-173 219 0
-176 222 0
-179 225 0
-182 228 0
-185 231 0
-188 234 0
-77 -78 0
-80 -81 0
-83 -84 0
-86 -87 0
-89 -90 0
-92 -93 0
-123 -124 0
-126 -127 0
-129 -130 0
-132 -133 0
-135 -136 0
-138 -139 0
-172 -173 0
-175 -176 0
-178 -179 0
-181 -182 0
-184 -185 0
-187 -188 0
-218 -219 0
-221 -222 0
-224 -225 0
-227 -228 0
-230 -231 0
-233 -234 0
-27 28 0
27 -28 0
-30 31 0
30 -31 0
-33 34 0
33 -34 0
-36 37 0
36 -37 0
-39 40 0
39 -40 0
-42 43 0
42 -43 0
-76 77 78 0
76 -77 0
76 -78 0
-79 80 81 0
79 -80 0
79 -81 0
-82 83 84 0
82 -83 0
82 -84 0
-85 86 87 0
85 -86 0
85 -87 0
-88 89 90 0
88 -89 0
88 -90 0
-91 92 93 0
91 -92 0
91 -93 0
-122 123 124 0
122 -123 0
122 -124 0
-125 126 127 0
125 -126 0
125 -127 0
-128 129 130 0
128 -129 0
128 -130 0
-131 132 133 0
131 -132 0
131 -133 0
-134 135 136 0
134 -135 0
134 -136 0
-137 138 139 0
137 -138 0
137 -139 0
-171 172 173 0
171 -172 0
171 -173 0
-174 175 176 0
174 -175 0
174 -176 0
-177 178 179 0
177 -178 0
177 -179 0
-180 181 182 0
180 -181 0
180 -182 0
-183 184 185 0
183 -184 0
183 -185 0
-186 187 188 0
186 -187 0
186 -188 0
-217 218 219 0
217 -218 0
217 -219 0
-220 221 222 0
220 -221 0
220 -222 0
-223 224 225 0
223 -224 0
223 -225 0
-226 227 228 0
226 -227 0
226 -228 0
-229 230 231 0
229 -230 0
229 -231 0
-232 233 234 0
232 -233 0
232 -234 0
20 -28 0
20 -31 0
20 -34 0
20 -37 0
20 -40 0
20 -43 0
66 28 -77 0
66 31 -80 0
66 34 -83 0
66 37 -86 0
66 40 -89 0
66 43 -92 0
115 77 -123 0
115 80 -126 0
115 83 -129 0
115 86 -132 0
115 89 -135 0
115 92 -138 0
161 123 -172 0
161 126 -175 0
161 129 -178 0
161 132 -181 0
161 135 -184 0
161 138 -187 0
210 172 -218 0
210 175 -221 0
210 178 -224 0
210 181 -227 0
210 184 -230 0
210 187 -233 0
66 -78 0
66 -81 0
66 -84 0
66 -87 0
66 -90 0
66 -93 0
115 78 -124 0
115 81 -127 0
115 84 -130 0
115 87 -133 0
115 90 -136 0
115 93 -139 0
161 124 -173 0
161 127 -176 0
161 130 -179 0
161 133 -182 0
161 136 -185 0
161 139 -188 0
210 173 -219 0
210 176 -222 0
210 179 -225 0
210 182 -228 0
210 185 -231 0
210 188 -234 0
21 -28 0
22 -31 0
23 -34 0
24 -37 0
25 -40 0
26 -43 0
116 77 -123 0
78 -124 0
117 80 -126 0
81 -127 0
118 83 -129 0
84 -130 0
119 86 -132 0
87 -133 0
120 89 -135 0
90 -136 0
121 92 -138 0
93 -139 0
211 172 -218 0
173 -219 0
212 175 -221 0
176 -222 0
213 178 -224 0
179 -225 0
214 181 -227 0
182 -228 0
215 184 -230 0
185 -231 0
216 187 -233 0
188 -234 0
70 -78 0
28 -77 0
71 -81 0
31 -80 0
72 -84 0
34 -83 0
73 -87 0
37 -86 0
74 -90 0
40 -89 0
75 -93 0
43 -92 0
165 124 -173 0
123 -172 0
166 127 -176 0
126 -175 0
167 130 -179 0
129 -178 0
168 133 -182 0
132 -181 0
169 136 -185 0
135 -184 0
170 139 -188 0
138 -187 0
257 -218 -221 0
-257 218 0
-257 221 0
258 -218 -224 -227 0
-258 218 0
-258 224 0
-258 227 0
259 -230 -224 -221 0
-259 230 0
-259 224 0
-259 221 0
260 -230 -224 -227 0
-260 230 0
-260 224 0
-260 227 0
257 258 259 260 0
-21 53 0
21 -53 0
-22 54 0
-53 54 0
22 -54 53 0
-22 -53 0
-23 55 0
-54 55 0
23 -55 54 0
-23 -54 0
-24 56 0
-55 56 0
24 -56 55 0
-24 -55 0
-25 57 0
-56 57 0
25 -57 56 0
-25 -56 0
-26 58 0
-57 58 0
26 -58 57 0
-26 -57 0
-116 148 0
116 -148 0
-117 149 0
-148 149 0
117 -149 148 0
-117 -148 0
-118 150 0
-149 150 0
118 -150 149 0
-118 -149 0
-119 151 0
-150 151 0
119 -151 150 0
-119 -150 0
-120 152 0
-151 152 0
120 -152 151 0
-120 -151 0
-121 153 0
-152 153 0
121 -153 152 0
-121 -152 0
-211 243 0
211 -243 0
-212 244 0
-243 244 0
212 -244 243 0
-212 -243 0
-213 245 0
-244 245 0
213 -245 244 0
-213 -244 0
-214 246 0
-245 246 0
214 -246 245 0
-214 -245 0
-215 247 0
-246 247 0
215 -247 246 0
-215 -246 0
-216 248 0
-247 248 0
216 -248 247 0
-216 -247 0
-70 102 0
70 -102 0
-71 103 0
-102 103 0
71 -103 102 0
-71 -102 0
-72 104 0
-103 104 0
72 -104 103 0
-72 -103 0
-73 105 0
-104 105 0
73 -105 104 0
-73 -104 0
-74 106 0
-105 106 0
74 -106 105 0
-74 -105 0
-75 107 0
-106 107 0
75 -107 106 0
-75 -106 0
-165 197 0
165 -197 0
-166 198 0
-197 198 0
166 -198 197 0
-166 -197 0
-167 199 0
-198 199 0
167 -199 198 0
-167 -198 0
-168 200 0
-199 200 0
168 -200 199 0
-168 -199 0
-169 201 0
-200 201 0
169 -201 200 0
-169 -200 0
-170 202 0
-201 202 0
170 -202 201 0
-170 -201 0
-20 58 0
-115 153 0
-210 248 0
-66 107 0
-161 202 0
-21 28 0
-21 20 0
-22 31 0
-22 20 0
-23 34 0
-23 20 0
-24 37 0
-24 20 0
-25 40 0
-25 20 0
-26 43 0
-26 20 0
-116 123 0
-116 -76 0
-116 115 0
-117 126 0
-117 -79 0
-117 115 0
-118 129 0
-118 -82 0
-118 115 0
-119 132 0
-119 -85 0
-119 115 0
-120 135 0
-120 -88 0
-120 115 0
-121 138 0
-121 -91 0
-121 115 0
-211 218 0
-211 -171 0
-211 210 0
-212 221 0
-212 -174 0
-212 210 0
-213 224 0
-213 -177 0
-213 210 0
-214 227 0
-214 -180 0
-214 210 0
-215 230 0
-215 -183 0
-215 210 0
-216 233 0
-216 -186 0
-216 210 0
-70 78 0
-70 -27 0
-70 66 0
-71 81 0
-71 -30 0
-71 66 0
-72 84 0
-72 -33 0
-72 66 0
-73 87 0
-73 -36 0
-73 66 0
-74 90 0
-74 -39 0
-74 66 0
-75 93 0
-75 -42 0
-75 66 0
-165 173 0
-165 -122 0
-165 161 0
-166 176 0
-166 -125 0
-166 161 0
-167 179 0
-167 -128 0
-167 161 0
-168 182 0
-168 -131 0
-168 161 0
-169 185 0
-169 -134 0
-169 161 0
-170 188 0
-170 -137 0
-170 161 0
-66 27 -67 -68 -69 70 0
-66 30 67 -68 -69 71 0
-66 33 -67 68 -69 72 0
-66 36 67 68 -69 73 0
-66 39 -67 -68 69 74 0
-66 42 67 -68 69 75 0
-161 122 -162 -163 -164 165 0
-161 125 162 -163 -164 166 0
-161 128 -162 163 -164 167 0
-161 131 162 163 -164 168 0
-161 134 -162 -163 164 169 0
-161 137 162 -163 164 170 0
